(set-option :auto-config false)
(set-option :produce-unsat-cores false)
(set-option :smt.mbqi.max_iterations 10000000)
(set-option :smt.relevancy 0)
(declare-fun c2 () Bool)
(define-fun e3 ((c0 (_ BitVec 64)) (c1 (_ BitVec 64))) Bool (not c2))
(declare-fun c4 () (_ BitVec 64))
(define-fun e5 ((c0 (_ BitVec 64)) (c1 (_ BitVec 64))) (_ BitVec 64) (_ bv512 64))
(define-fun e6 ((c0 (_ BitVec 64)) (c1 (_ BitVec 64))) Bool (bvult c4 (e5 c0 c1)))
(declare-fun c7 () (_ BitVec 64))
(define-fun e8 ((c0 (_ BitVec 64)) (c1 (_ BitVec 64))) (_ BitVec 64) (_ bv256 64))
(define-fun e9 ((c0 (_ BitVec 64)) (c1 (_ BitVec 64))) Bool (bvult c7 (e8 c0 c1)))
(define-fun e10 ((c0 (_ BitVec 64)) (c1 (_ BitVec 64))) Bool (not (e9 c0 c1)))
(declare-fun c11 () (_ BitVec 64))
(define-fun e12 ((c0 (_ BitVec 64)) (c1 (_ BitVec 64))) (_ BitVec 64) (_ bv1024 64))
(define-fun e13 ((c0 (_ BitVec 64)) (c1 (_ BitVec 64))) Bool (bvult c11 (e12 c0 c1)))
(define-fun e14 ((c0 (_ BitVec 64)) (c1 (_ BitVec 64))) (_ BitVec 64) (_ bv5 64))
(declare-fun c15 ((_ BitVec 64)) (_ BitVec 64))
(define-fun e16 ((c0 (_ BitVec 64)) (c1 (_ BitVec 64))) (_ BitVec 64) (c15 c11))
(define-fun e17 ((c0 (_ BitVec 64)) (c1 (_ BitVec 64))) Bool (= (e14 c0 c1) (e16 c0 c1)))
(define-fun e18 ((c0 (_ BitVec 64)) (c1 (_ BitVec 64))) Bool (and (e13 c0 c1) (e17 c0 c1)))
(define-fun e19 ((c0 (_ BitVec 64)) (c1 (_ BitVec 64))) Bool (not (e18 c0 c1)))
(define-fun e20 ((c0 (_ BitVec 64)) (c1 (_ BitVec 64))) Bool (or (e10 c0 c1) (e19 c0 c1)))
(define-fun e21 ((c0 (_ BitVec 64)) (c1 (_ BitVec 64))) Bool (not (e20 c0 c1)))
(define-fun e22 ((c0 (_ BitVec 64)) (c1 (_ BitVec 64))) (_ BitVec 64) (_ bv0 64))
(declare-fun c23 ((_ BitVec 64) (_ BitVec 64)) (_ BitVec 64))
(define-fun e24 ((c0 (_ BitVec 64)) (c1 (_ BitVec 64))) (_ BitVec 64) (c23 c11 c4))
(define-fun e25 ((c0 (_ BitVec 64)) (c1 (_ BitVec 64))) Bool (= (e22 c0 c1) (e24 c0 c1)))
(declare-fun c26 () (_ BitVec 64))
(define-fun e27 ((c0 (_ BitVec 64)) (c1 (_ BitVec 64))) Bool (bvult c26 (e12 c0 c1)))
(define-fun e28 ((c0 (_ BitVec 64)) (c1 (_ BitVec 64))) (_ BitVec 64) (c15 c26))
(define-fun e29 ((c0 (_ BitVec 64)) (c1 (_ BitVec 64))) Bool (= (e22 c0 c1) (e28 c0 c1)))
(define-fun e30 ((c0 (_ BitVec 64)) (c1 (_ BitVec 64))) Bool (and (e27 c0 c1) (e29 c0 c1)))
(declare-fun c31 ((_ BitVec 64)) (_ BitVec 64))
(define-fun e32 ((c0 (_ BitVec 64)) (c1 (_ BitVec 64))) (_ BitVec 64) (c31 c11))
(define-fun e33 ((c0 (_ BitVec 64)) (c1 (_ BitVec 64))) (_ BitVec 64) (_ bv2 64))
(define-fun e34 ((c0 (_ BitVec 64)) (c1 (_ BitVec 64))) (_ BitVec 64) (c23 (e32 c0 c1) (e33 c0 c1)))
(define-fun e35 ((c0 (_ BitVec 64)) (c1 (_ BitVec 64))) Bool (= (e22 c0 c1) (e34 c0 c1)))
(define-fun e36 ((c0 (_ BitVec 64)) (c1 (_ BitVec 64))) Bool (and (e3 c0 c1) (e6 c0 c1) (e21 c0 c1) (e25 c0 c1) (e30 c0 c1) (e35 c0 c1)))
(define-fun e37 ((c0 (_ BitVec 64)) (c1 (_ BitVec 64))) Bool (= c11 c0))
(define-fun e38 ((c0 (_ BitVec 64)) (c1 (_ BitVec 64))) Bool (= c4 c1))
(define-fun e39 ((c0 (_ BitVec 64)) (c1 (_ BitVec 64))) Bool (and (e37 c0 c1) (e38 c0 c1)))
(declare-fun c40 ((_ BitVec 64) (_ BitVec 64)) (_ BitVec 64))
(define-fun e41 ((c0 (_ BitVec 64)) (c1 (_ BitVec 64))) (_ BitVec 64) (c40 c0 c1))
(define-fun e42 ((c0 (_ BitVec 64)) (c1 (_ BitVec 64))) (_ BitVec 64) (ite (e39 c0 c1) c26 (e41 c0 c1)))
(define-fun e43 ((c0 (_ BitVec 64)) (c1 (_ BitVec 64))) Bool (not (e6 c0 c1)))
(define-fun e44 ((c0 (_ BitVec 64)) (c1 (_ BitVec 64))) Bool (not (e25 c0 c1)))
(define-fun e45 ((c0 (_ BitVec 64)) (c1 (_ BitVec 64))) Bool (not (e27 c0 c1)))
(define-fun e46 ((c0 (_ BitVec 64)) (c1 (_ BitVec 64))) Bool (not (e30 c0 c1)))
(define-fun e47 ((c0 (_ BitVec 64)) (c1 (_ BitVec 64))) Bool (not (e35 c0 c1)))
(define-fun e48 ((c0 (_ BitVec 64)) (c1 (_ BitVec 64))) Bool (and (e30 c0 c1) (e47 c0 c1)))
(define-fun e49 ((c0 (_ BitVec 64)) (c1 (_ BitVec 64))) Bool (or (e46 c0 c1) (e48 c0 c1)))
(define-fun e50 ((c0 (_ BitVec 64)) (c1 (_ BitVec 64))) Bool (and (e27 c0 c1) (e49 c0 c1)))
(define-fun e51 ((c0 (_ BitVec 64)) (c1 (_ BitVec 64))) Bool (or (e45 c0 c1) (e50 c0 c1)))
(define-fun e52 ((c0 (_ BitVec 64)) (c1 (_ BitVec 64))) Bool (and (e25 c0 c1) (e51 c0 c1)))
(define-fun e53 ((c0 (_ BitVec 64)) (c1 (_ BitVec 64))) Bool (or (e44 c0 c1) (e52 c0 c1)))
(define-fun e54 ((c0 (_ BitVec 64)) (c1 (_ BitVec 64))) Bool (and (e21 c0 c1) (e53 c0 c1)))
(define-fun e55 ((c0 (_ BitVec 64)) (c1 (_ BitVec 64))) Bool (or (e20 c0 c1) (e54 c0 c1)))
(define-fun e56 ((c0 (_ BitVec 64)) (c1 (_ BitVec 64))) Bool (and (e6 c0 c1) (e55 c0 c1)))
(define-fun e57 ((c0 (_ BitVec 64)) (c1 (_ BitVec 64))) Bool (or (e43 c0 c1) (e56 c0 c1)))
(define-fun e58 ((c0 (_ BitVec 64)) (c1 (_ BitVec 64))) Bool (and (e3 c0 c1) (e57 c0 c1)))
(define-fun e59 ((c0 (_ BitVec 64)) (c1 (_ BitVec 64))) Bool (or c2 (e58 c0 c1)))
(define-fun e60 ((c0 (_ BitVec 64)) (c1 (_ BitVec 64))) (_ BitVec 64) (bvor (ite (e36 c0 c1) (e42 c0 c1) (_ bv0 64)) (ite (e59 c0 c1) (e41 c0 c1) (_ bv0 64))))
(define-fun e61 ((c0 (_ BitVec 64)) (c1 (_ BitVec 64))) Bool (bvult (e60 c0 c1) (e8 c0 c1)))
(define-fun e62 ((c0 (_ BitVec 64)) (c1 (_ BitVec 64))) Bool (bvult c0 (e12 c0 c1)))
(define-fun e63 ((c0 (_ BitVec 64)) (c1 (_ BitVec 64))) Bool (bvult c1 (e5 c0 c1)))
(define-fun e64 ((c0 (_ BitVec 64)) (c1 (_ BitVec 64))) Bool (= c26 c0))
(define-fun e65 ((c0 (_ BitVec 64)) (c1 (_ BitVec 64))) (_ BitVec 64) (c31 c0))
(define-fun e66 ((c0 (_ BitVec 64)) (c1 (_ BitVec 64))) (_ BitVec 64) (ite (e64 c0 c1) (e32 c0 c1) (e65 c0 c1)))
(define-fun e67 ((c0 (_ BitVec 64)) (c1 (_ BitVec 64))) (_ BitVec 64) (bvor (ite (e36 c0 c1) (e66 c0 c1) (_ bv0 64)) (ite (e59 c0 c1) (e65 c0 c1) (_ bv0 64))))
(define-fun e68 ((c0 (_ BitVec 64)) (c1 (_ BitVec 64))) Bool (bvult (e67 c0 c1) (e12 c0 c1)))
(define-fun e69 ((c0 (_ BitVec 64)) (c1 (_ BitVec 64))) (_ BitVec 64) (_ bv1 64))
(define-fun e70 ((c0 (_ BitVec 64)) (c1 (_ BitVec 64))) Bool (= c26 (e67 c0 c1)))
(define-fun e71 ((c0 (_ BitVec 64)) (c1 (_ BitVec 64))) (_ BitVec 64) (_ bv6 64))
(define-fun e72 ((c0 (_ BitVec 64)) (c1 (_ BitVec 64))) (_ BitVec 64) (c15 (e67 c0 c1)))
(define-fun e73 ((c0 (_ BitVec 64)) (c1 (_ BitVec 64))) (_ BitVec 64) (ite (e70 c0 c1) (e71 c0 c1) (e72 c0 c1)))
(define-fun e74 ((c0 (_ BitVec 64)) (c1 (_ BitVec 64))) (_ BitVec 64) (bvor (ite (e36 c0 c1) (e73 c0 c1) (_ bv0 64)) (ite (e59 c0 c1) (e72 c0 c1) (_ bv0 64))))
(define-fun e75 ((c0 (_ BitVec 64)) (c1 (_ BitVec 64))) Bool (= (e69 c0 c1) (e74 c0 c1)))
(define-fun e76 ((c0 (_ BitVec 64)) (c1 (_ BitVec 64))) Bool (and (e68 c0 c1) (e75 c0 c1)))
(declare-fun c77 ((_ BitVec 64) (_ BitVec 64)) (_ BitVec 64))
(define-fun e78 ((c0 (_ BitVec 64)) (c1 (_ BitVec 64))) (_ BitVec 64) (c77 c7 (e33 c0 c1)))
(define-fun e79 ((c0 (_ BitVec 64)) (c1 (_ BitVec 64))) Bool (= (e33 c0 c1) c4))
(define-fun e80 ((c0 (_ BitVec 64)) (c1 (_ BitVec 64))) Bool (= c11 (e67 c0 c1)))
(define-fun e81 ((c0 (_ BitVec 64)) (c1 (_ BitVec 64))) Bool (and (e79 c0 c1) (e80 c0 c1)))
(define-fun e82 ((c0 (_ BitVec 64)) (c1 (_ BitVec 64))) (_ BitVec 64) (_ bv193 64))
(define-fun e83 ((c0 (_ BitVec 64)) (c1 (_ BitVec 64))) (_ BitVec 64) (_ bv14 64))
(declare-fun c84 () (_ BitVec 64))
(define-fun e85 ((c0 (_ BitVec 64)) (c1 (_ BitVec 64))) (_ BitVec 64) (bvand (e83 c0 c1) c84))
(define-fun e86 ((c0 (_ BitVec 64)) (c1 (_ BitVec 64))) (_ BitVec 64) (bvor (e82 c0 c1) (e85 c0 c1)))
(define-fun e87 ((c0 (_ BitVec 64)) (c1 (_ BitVec 64))) (_ BitVec 64) (_ bv524314 64))
(define-fun e88 ((c0 (_ BitVec 64)) (c1 (_ BitVec 64))) (_ BitVec 64) (bvadd (e87 c0 c1) c26))
(define-fun e89 ((c0 (_ BitVec 64)) (c1 (_ BitVec 64))) (_ BitVec 64) (_ bv10 64))
(define-fun e90 ((c0 (_ BitVec 64)) (c1 (_ BitVec 64))) (_ BitVec 64) (bvshl (e88 c0 c1) (e89 c0 c1)))
(define-fun e91 ((c0 (_ BitVec 64)) (c1 (_ BitVec 64))) (_ BitVec 64) (bvor (e86 c0 c1) (e90 c0 c1)))
(define-fun e92 ((c0 (_ BitVec 64)) (c1 (_ BitVec 64))) (_ BitVec 64) (c23 (e67 c0 c1) (e33 c0 c1)))
(define-fun e93 ((c0 (_ BitVec 64)) (c1 (_ BitVec 64))) (_ BitVec 64) (ite (e70 c0 c1) (e22 c0 c1) (e92 c0 c1)))
(define-fun e94 ((c0 (_ BitVec 64)) (c1 (_ BitVec 64))) (_ BitVec 64) (ite (e81 c0 c1) (e91 c0 c1) (e93 c0 c1)))
(define-fun e95 ((c0 (_ BitVec 64)) (c1 (_ BitVec 64))) (_ BitVec 64) (ite (e70 c0 c1) (e78 c0 c1) (e94 c0 c1)))
(define-fun e96 ((c0 (_ BitVec 64)) (c1 (_ BitVec 64))) (_ BitVec 64) (bvor (ite (e36 c0 c1) (e95 c0 c1) (_ bv0 64)) (ite (e59 c0 c1) (e92 c0 c1) (_ bv0 64))))
(define-fun e97 ((c0 (_ BitVec 64)) (c1 (_ BitVec 64))) Bool (= (e33 c0 c1) (e96 c0 c1)))
(define-fun e98 ((c0 (_ BitVec 64)) (c1 (_ BitVec 64))) Bool (not (e97 c0 c1)))
(define-fun e99 ((c0 (_ BitVec 64)) (c1 (_ BitVec 64))) Bool (and (e62 c0 c1) (e63 c0 c1) (e76 c0 c1) (e98 c0 c1)))
(declare-fun c100 ((_ BitVec 64) (_ BitVec 64)) Bool)
(define-fun e101 ((c0 (_ BitVec 64)) (c1 (_ BitVec 64))) Bool (c100 c0 c1))
(define-fun e102 ((c0 (_ BitVec 64)) (c1 (_ BitVec 64))) Bool (not (e39 c0 c1)))
(define-fun e103 ((c0 (_ BitVec 64)) (c1 (_ BitVec 64))) Bool (and (e101 c0 c1) (e102 c0 c1)))
(define-fun e104 ((c0 (_ BitVec 64)) (c1 (_ BitVec 64))) Bool (or (e39 c0 c1) (e103 c0 c1)))
(define-fun e105 ((c0 (_ BitVec 64)) (c1 (_ BitVec 64))) Bool (and (e36 c0 c1) (e104 c0 c1)))
(define-fun e106 ((c0 (_ BitVec 64)) (c1 (_ BitVec 64))) Bool (and (e101 c0 c1) (e59 c0 c1)))
(define-fun e107 ((c0 (_ BitVec 64)) (c1 (_ BitVec 64))) Bool (or (e105 c0 c1) (e106 c0 c1)))
(define-fun e108 ((c0 (_ BitVec 64)) (c1 (_ BitVec 64))) (_ BitVec 64) (c15 c0))
(define-fun e109 ((c0 (_ BitVec 64)) (c1 (_ BitVec 64))) (_ BitVec 64) (ite (e64 c0 c1) (e71 c0 c1) (e108 c0 c1)))
(define-fun e110 ((c0 (_ BitVec 64)) (c1 (_ BitVec 64))) (_ BitVec 64) (bvor (ite (e36 c0 c1) (e109 c0 c1) (_ bv0 64)) (ite (e59 c0 c1) (e108 c0 c1) (_ bv0 64))))
(define-fun e111 ((c0 (_ BitVec 64)) (c1 (_ BitVec 64))) Bool (= (e14 c0 c1) (e110 c0 c1)))
(define-fun e112 ((c0 (_ BitVec 64)) (c1 (_ BitVec 64))) Bool (and (e62 c0 c1) (e111 c0 c1)))
(declare-fun c113 ((_ BitVec 64) (_ BitVec 64)) Bool)
(define-fun e114 ((c0 (_ BitVec 64)) (c1 (_ BitVec 64))) Bool (c113 c0 c1))
(define-fun e115 ((c0 (_ BitVec 64)) (c1 (_ BitVec 64))) Bool (and (e114 c0 c1) (e102 c0 c1)))
(define-fun e116 ((c0 (_ BitVec 64)) (c1 (_ BitVec 64))) Bool (or (e39 c0 c1) (e115 c0 c1)))
(define-fun e117 ((c0 (_ BitVec 64)) (c1 (_ BitVec 64))) Bool (and (e36 c0 c1) (e116 c0 c1)))
(define-fun e118 ((c0 (_ BitVec 64)) (c1 (_ BitVec 64))) Bool (and (e114 c0 c1) (e59 c0 c1)))
(define-fun e119 ((c0 (_ BitVec 64)) (c1 (_ BitVec 64))) Bool (or (e117 c0 c1) (e118 c0 c1)))
(define-fun e120 ((c0 (_ BitVec 64)) (c1 (_ BitVec 64))) Bool (not (e119 c0 c1)))
(define-fun e121 ((c0 (_ BitVec 64)) (c1 (_ BitVec 64))) Bool (and (e99 c0 c1) (e107 c0 c1) (e112 c0 c1) (e120 c0 c1)))
(define-fun e122 ((c0 (_ BitVec 64)) (c1 (_ BitVec 64))) Bool (not (e121 c0 c1)))
(define-fun e123 ((c0 (_ BitVec 64)) (c1 (_ BitVec 64))) Bool (or (e61 c0 c1) (e122 c0 c1)))
(define-fun e124 () Bool (forall ((c0 (_ BitVec 64)) (c1 (_ BitVec 64))) (e123 c0 c1)))
(declare-fun c125 () (_ BitVec 64))
(define-fun e126 () (_ BitVec 64) (_ bv1024 64))
(define-fun e127 () Bool (bvult c125 e126))
(define-fun e128 () (_ BitVec 64) (_ bv2 64))
(define-fun e129 () (_ BitVec 64) (c15 c125))
(define-fun e130 () Bool (= e128 e129))
(define-fun e131 () Bool (and e127 e130))
(define-fun e132 () Bool (not c2))
(define-fun e133 () Bool (or e131 e132))
(define-fun e134 ((c0 (_ BitVec 64))) (_ BitVec 64) (_ bv0 64))
(define-fun e135 ((c0 (_ BitVec 64))) (_ BitVec 64) (c23 c0 (e134 c0)))
(define-fun e136 ((c0 (_ BitVec 64))) (_ BitVec 64) (_ bv1024 64))
(define-fun e137 ((c0 (_ BitVec 64))) Bool (bvult (e135 c0) (e136 c0)))
(define-fun e138 ((c0 (_ BitVec 64))) (_ BitVec 64) (_ bv3 64))
(define-fun e139 ((c0 (_ BitVec 64))) (_ BitVec 64) (c15 (e135 c0)))
(define-fun e140 ((c0 (_ BitVec 64))) Bool (= (e138 c0) (e139 c0)))
(define-fun e141 ((c0 (_ BitVec 64))) Bool (and (e137 c0) (e140 c0)))
(define-fun e142 ((c0 (_ BitVec 64))) (_ BitVec 64) (c31 (e135 c0)))
(define-fun e143 ((c0 (_ BitVec 64))) Bool (= c0 (e142 c0)))
(define-fun e144 ((c0 (_ BitVec 64))) Bool (and (e141 c0) (e143 c0)))
(define-fun e145 ((c0 (_ BitVec 64))) Bool (bvult c0 (e136 c0)))
(define-fun e146 ((c0 (_ BitVec 64))) (_ BitVec 64) (_ bv1 64))
(define-fun e147 ((c0 (_ BitVec 64))) (_ BitVec 64) (c15 c0))
(define-fun e148 ((c0 (_ BitVec 64))) Bool (= (e146 c0) (e147 c0)))
(define-fun e149 ((c0 (_ BitVec 64))) Bool (and (e145 c0) (e148 c0)))
(define-fun e150 ((c0 (_ BitVec 64))) (_ BitVec 64) (_ bv2 64))
(define-fun e151 ((c0 (_ BitVec 64))) (_ BitVec 64) (c23 c0 (e150 c0)))
(define-fun e152 ((c0 (_ BitVec 64))) Bool (= (e150 c0) (e151 c0)))
(define-fun e153 ((c0 (_ BitVec 64))) Bool (not (e152 c0)))
(define-fun e154 ((c0 (_ BitVec 64))) Bool (and (e149 c0) (e153 c0)))
(define-fun e155 ((c0 (_ BitVec 64))) Bool (not (e154 c0)))
(define-fun e156 ((c0 (_ BitVec 64))) Bool (or (e144 c0) (e155 c0)))
(define-fun e157 () Bool (forall ((c0 (_ BitVec 64))) (e156 c0)))
(define-fun e158 ((c0 (_ BitVec 64)) (c1 (_ BitVec 64))) (_ BitVec 64) (c23 c0 c1))
(define-fun e159 ((c0 (_ BitVec 64)) (c1 (_ BitVec 64))) (_ BitVec 64) (bvadd (e87 c0 c1) (e41 c0 c1)))
(define-fun e160 ((c0 (_ BitVec 64)) (c1 (_ BitVec 64))) (_ BitVec 64) (bvshl (e159 c0 c1) (e89 c0 c1)))
(define-fun e161 ((c0 (_ BitVec 64)) (c1 (_ BitVec 64))) (_ BitVec 64) (bvor (e69 c0 c1) (e160 c0 c1)))
(define-fun e162 ((c0 (_ BitVec 64)) (c1 (_ BitVec 64))) (_ BitVec 64) (ite (e101 c0 c1) (e161 c0 c1) (e22 c0 c1)))
(define-fun e163 ((c0 (_ BitVec 64)) (c1 (_ BitVec 64))) Bool (= (e158 c0 c1) (e162 c0 c1)))
(define-fun e164 ((c0 (_ BitVec 64)) (c1 (_ BitVec 64))) Bool (bvult (e65 c0 c1) (e12 c0 c1)))
(define-fun e165 ((c0 (_ BitVec 64)) (c1 (_ BitVec 64))) (_ BitVec 64) (c15 (e65 c0 c1)))
(define-fun e166 ((c0 (_ BitVec 64)) (c1 (_ BitVec 64))) Bool (= (e69 c0 c1) (e165 c0 c1)))
(define-fun e167 ((c0 (_ BitVec 64)) (c1 (_ BitVec 64))) Bool (and (e164 c0 c1) (e166 c0 c1)))
(define-fun e168 ((c0 (_ BitVec 64)) (c1 (_ BitVec 64))) (_ BitVec 64) (c23 (e65 c0 c1) (e33 c0 c1)))
(define-fun e169 ((c0 (_ BitVec 64)) (c1 (_ BitVec 64))) Bool (= (e33 c0 c1) (e168 c0 c1)))
(define-fun e170 ((c0 (_ BitVec 64)) (c1 (_ BitVec 64))) Bool (not (e169 c0 c1)))
(define-fun e171 ((c0 (_ BitVec 64)) (c1 (_ BitVec 64))) Bool (and (e62 c0 c1) (e63 c0 c1) (e167 c0 c1) (e170 c0 c1)))
(define-fun e172 ((c0 (_ BitVec 64)) (c1 (_ BitVec 64))) (_ BitVec 64) (_ bv3 64))
(define-fun e173 ((c0 (_ BitVec 64)) (c1 (_ BitVec 64))) Bool (= (e172 c0 c1) (e108 c0 c1)))
(define-fun e174 ((c0 (_ BitVec 64)) (c1 (_ BitVec 64))) Bool (and (e62 c0 c1) (e173 c0 c1)))
(define-fun e175 ((c0 (_ BitVec 64)) (c1 (_ BitVec 64))) (_ BitVec 64) (_ bv4 64))
(define-fun e176 ((c0 (_ BitVec 64)) (c1 (_ BitVec 64))) Bool (= (e175 c0 c1) (e108 c0 c1)))
(define-fun e177 ((c0 (_ BitVec 64)) (c1 (_ BitVec 64))) Bool (and (e62 c0 c1) (e176 c0 c1)))
(define-fun e178 ((c0 (_ BitVec 64)) (c1 (_ BitVec 64))) Bool (or (e174 c0 c1) (e177 c0 c1)))
(define-fun e179 ((c0 (_ BitVec 64)) (c1 (_ BitVec 64))) Bool (and (e171 c0 c1) (e178 c0 c1)))
(define-fun e180 ((c0 (_ BitVec 64)) (c1 (_ BitVec 64))) Bool (not (e179 c0 c1)))
(define-fun e181 ((c0 (_ BitVec 64)) (c1 (_ BitVec 64))) Bool (or (e163 c0 c1) (e180 c0 c1)))
(define-fun e182 () Bool (forall ((c0 (_ BitVec 64)) (c1 (_ BitVec 64))) (e181 c0 c1)))
(declare-fun c183 ((_ BitVec 64) (_ BitVec 64)) (_ BitVec 64))
(define-fun e184 ((c0 (_ BitVec 64)) (c1 (_ BitVec 64))) (_ BitVec 64) (c183 c0 c1))
(define-fun e185 ((c0 (_ BitVec 64)) (c1 (_ BitVec 64))) (_ BitVec 64) (bvand (e83 c0 c1) (e184 c0 c1)))
(define-fun e186 ((c0 (_ BitVec 64)) (c1 (_ BitVec 64))) (_ BitVec 64) (bvor (e82 c0 c1) (e185 c0 c1)))
(define-fun e187 ((c0 (_ BitVec 64)) (c1 (_ BitVec 64))) (_ BitVec 64) (bvor (e160 c0 c1) (e186 c0 c1)))
(define-fun e188 ((c0 (_ BitVec 64)) (c1 (_ BitVec 64))) (_ BitVec 64) (_ bv525824 64))
(define-fun e189 ((c0 (_ BitVec 64)) (c1 (_ BitVec 64))) (_ BitVec 64) (bvadd (e188 c0 c1) (e41 c0 c1)))
(define-fun e190 ((c0 (_ BitVec 64)) (c1 (_ BitVec 64))) (_ BitVec 64) (bvshl (e189 c0 c1) (e89 c0 c1)))
(define-fun e191 ((c0 (_ BitVec 64)) (c1 (_ BitVec 64))) (_ BitVec 64) (bvor (e186 c0 c1) (e190 c0 c1)))
(define-fun e192 ((c0 (_ BitVec 64)) (c1 (_ BitVec 64))) (_ BitVec 64) (ite (e114 c0 c1) (e187 c0 c1) (e191 c0 c1)))
(define-fun e193 ((c0 (_ BitVec 64)) (c1 (_ BitVec 64))) (_ BitVec 64) (ite (e101 c0 c1) (e192 c0 c1) (e22 c0 c1)))
(define-fun e194 ((c0 (_ BitVec 64)) (c1 (_ BitVec 64))) Bool (= (e158 c0 c1) (e193 c0 c1)))
(define-fun e195 ((c0 (_ BitVec 64)) (c1 (_ BitVec 64))) Bool (= (e14 c0 c1) (e108 c0 c1)))
(define-fun e196 ((c0 (_ BitVec 64)) (c1 (_ BitVec 64))) Bool (and (e62 c0 c1) (e195 c0 c1)))
(define-fun e197 ((c0 (_ BitVec 64)) (c1 (_ BitVec 64))) Bool (and (e171 c0 c1) (e196 c0 c1)))
(define-fun e198 ((c0 (_ BitVec 64)) (c1 (_ BitVec 64))) Bool (not (e197 c0 c1)))
(define-fun e199 ((c0 (_ BitVec 64)) (c1 (_ BitVec 64))) Bool (or (e194 c0 c1) (e198 c0 c1)))
(define-fun e200 () Bool (forall ((c0 (_ BitVec 64)) (c1 (_ BitVec 64))) (e199 c0 c1)))
(define-fun e201 ((c0 (_ BitVec 64)) (c1 (_ BitVec 64))) Bool (bvult (e41 c0 c1) (e12 c0 c1)))
(define-fun e202 ((c0 (_ BitVec 64)) (c1 (_ BitVec 64))) (_ BitVec 64) (c15 (e41 c0 c1)))
(define-fun e203 ((c0 (_ BitVec 64)) (c1 (_ BitVec 64))) Bool (= (e175 c0 c1) (e202 c0 c1)))
(define-fun e204 ((c0 (_ BitVec 64)) (c1 (_ BitVec 64))) Bool (and (e201 c0 c1) (e203 c0 c1)))
(define-fun e205 ((c0 (_ BitVec 64)) (c1 (_ BitVec 64))) (_ BitVec 64) (c31 (e41 c0 c1)))
(define-fun e206 ((c0 (_ BitVec 64)) (c1 (_ BitVec 64))) Bool (= (e65 c0 c1) (e205 c0 c1)))
(define-fun e207 ((c0 (_ BitVec 64)) (c1 (_ BitVec 64))) Bool (and (e204 c0 c1) (e206 c0 c1)))
(define-fun e208 ((c0 (_ BitVec 64)) (c1 (_ BitVec 64))) Bool (and (e171 c0 c1) (e174 c0 c1) (e101 c0 c1)))
(define-fun e209 ((c0 (_ BitVec 64)) (c1 (_ BitVec 64))) Bool (not (e208 c0 c1)))
(define-fun e210 ((c0 (_ BitVec 64)) (c1 (_ BitVec 64))) Bool (or (e207 c0 c1) (e209 c0 c1)))
(define-fun e211 () Bool (forall ((c0 (_ BitVec 64)) (c1 (_ BitVec 64))) (e210 c0 c1)))
(define-fun e212 ((c0 (_ BitVec 64)) (c1 (_ BitVec 64))) Bool (= (e14 c0 c1) (e202 c0 c1)))
(define-fun e213 ((c0 (_ BitVec 64)) (c1 (_ BitVec 64))) Bool (and (e201 c0 c1) (e212 c0 c1)))
(define-fun e214 ((c0 (_ BitVec 64)) (c1 (_ BitVec 64))) Bool (and (e206 c0 c1) (e213 c0 c1)))
(define-fun e215 ((c0 (_ BitVec 64)) (c1 (_ BitVec 64))) Bool (and (e171 c0 c1) (e177 c0 c1) (e101 c0 c1)))
(define-fun e216 ((c0 (_ BitVec 64)) (c1 (_ BitVec 64))) Bool (not (e215 c0 c1)))
(define-fun e217 ((c0 (_ BitVec 64)) (c1 (_ BitVec 64))) Bool (or (e214 c0 c1) (e216 c0 c1)))
(define-fun e218 () Bool (forall ((c0 (_ BitVec 64)) (c1 (_ BitVec 64))) (e217 c0 c1)))
(define-fun e219 ((c0 (_ BitVec 64)) (c1 (_ BitVec 64))) Bool (= (e71 c0 c1) (e202 c0 c1)))
(define-fun e220 ((c0 (_ BitVec 64)) (c1 (_ BitVec 64))) Bool (and (e201 c0 c1) (e219 c0 c1)))
(define-fun e221 ((c0 (_ BitVec 64)) (c1 (_ BitVec 64))) Bool (and (e206 c0 c1) (e220 c0 c1)))
(define-fun e222 ((c0 (_ BitVec 64)) (c1 (_ BitVec 64))) Bool (and (e171 c0 c1) (e101 c0 c1) (e196 c0 c1) (e114 c0 c1)))
(define-fun e223 ((c0 (_ BitVec 64)) (c1 (_ BitVec 64))) Bool (not (e222 c0 c1)))
(define-fun e224 ((c0 (_ BitVec 64)) (c1 (_ BitVec 64))) Bool (or (e221 c0 c1) (e223 c0 c1)))
(define-fun e225 () Bool (forall ((c0 (_ BitVec 64)) (c1 (_ BitVec 64))) (e224 c0 c1)))
(define-fun e226 ((c0 (_ BitVec 64)) (c1 (_ BitVec 64))) Bool (bvult (e41 c0 c1) (e8 c0 c1)))
(define-fun e227 ((c0 (_ BitVec 64)) (c1 (_ BitVec 64))) Bool (not (e114 c0 c1)))
(define-fun e228 ((c0 (_ BitVec 64)) (c1 (_ BitVec 64))) Bool (and (e171 c0 c1) (e101 c0 c1) (e196 c0 c1) (e227 c0 c1)))
(define-fun e229 ((c0 (_ BitVec 64)) (c1 (_ BitVec 64))) Bool (not (e228 c0 c1)))
(define-fun e230 ((c0 (_ BitVec 64)) (c1 (_ BitVec 64))) Bool (or (e226 c0 c1) (e229 c0 c1)))
(define-fun e231 () Bool (forall ((c0 (_ BitVec 64)) (c1 (_ BitVec 64))) (e230 c0 c1)))
(define-fun e232 ((c0 (_ BitVec 64)) (c1 (_ BitVec 64))) Bool (not (e101 c0 c1)))
(define-fun e233 ((c0 (_ BitVec 64)) (c1 (_ BitVec 64))) Bool (= (e22 c0 c1) (e41 c0 c1)))
(define-fun e234 ((c0 (_ BitVec 64)) (c1 (_ BitVec 64))) Bool (and (e232 c0 c1) (e233 c0 c1)))
(define-fun e235 ((c0 (_ BitVec 64)) (c1 (_ BitVec 64))) Bool (not (e174 c0 c1)))
(define-fun e236 ((c0 (_ BitVec 64)) (c1 (_ BitVec 64))) Bool (not (e177 c0 c1)))
(define-fun e237 ((c0 (_ BitVec 64)) (c1 (_ BitVec 64))) Bool (not (e196 c0 c1)))
(define-fun e238 ((c0 (_ BitVec 64)) (c1 (_ BitVec 64))) Bool (and (e62 c0 c1) (e63 c0 c1) (e235 c0 c1) (e236 c0 c1) (e237 c0 c1)))
(define-fun e239 ((c0 (_ BitVec 64)) (c1 (_ BitVec 64))) Bool (not (e238 c0 c1)))
(define-fun e240 ((c0 (_ BitVec 64)) (c1 (_ BitVec 64))) Bool (or (e234 c0 c1) (e239 c0 c1)))
(define-fun e241 () Bool (forall ((c0 (_ BitVec 64)) (c1 (_ BitVec 64))) (e240 c0 c1)))
(define-fun e242 ((c0 (_ BitVec 64)) (c1 (_ BitVec 64))) Bool (= (e22 c0 c1) (e184 c0 c1)))
(define-fun e243 ((c0 (_ BitVec 64)) (c1 (_ BitVec 64))) Bool (and (e227 c0 c1) (e242 c0 c1)))
(define-fun e244 ((c0 (_ BitVec 64)) (c1 (_ BitVec 64))) Bool (and (e62 c0 c1) (e63 c0 c1) (e237 c0 c1)))
(define-fun e245 ((c0 (_ BitVec 64)) (c1 (_ BitVec 64))) Bool (not (e244 c0 c1)))
(define-fun e246 ((c0 (_ BitVec 64)) (c1 (_ BitVec 64))) Bool (or (e243 c0 c1) (e245 c0 c1)))
(define-fun e247 () Bool (forall ((c0 (_ BitVec 64)) (c1 (_ BitVec 64))) (e246 c0 c1)))
(define-fun e248 () Bool (and e133 e157 e182 e200 e211 e218 e225 e231 e241 e247))
(define-fun e250 ((c249 (_ BitVec 64))) (_ BitVec 64) (c31 c249))
(define-fun e251 ((c249 (_ BitVec 64))) (_ BitVec 64) (_ bv1024 64))
(define-fun e252 ((c249 (_ BitVec 64))) Bool (bvult (e250 c249) (e251 c249)))
(define-fun e253 ((c249 (_ BitVec 64))) (_ BitVec 64) (_ bv1 64))
(define-fun e254 ((c249 (_ BitVec 64))) (_ BitVec 64) (c15 (e250 c249)))
(define-fun e255 ((c249 (_ BitVec 64))) Bool (= (e253 c249) (e254 c249)))
(define-fun e256 ((c249 (_ BitVec 64))) Bool (and (e252 c249) (e255 c249)))
(define-fun e257 ((c249 (_ BitVec 64))) Bool (bvult c249 (e251 c249)))
(define-fun e258 ((c249 (_ BitVec 64))) (_ BitVec 64) (_ bv0 64))
(define-fun e259 ((c249 (_ BitVec 64))) (_ BitVec 64) (c15 c249))
(define-fun e260 ((c249 (_ BitVec 64))) Bool (= (e258 c249) (e259 c249)))
(define-fun e261 ((c249 (_ BitVec 64))) Bool (not (e260 c249)))
(define-fun e262 ((c249 (_ BitVec 64))) Bool (and (e257 c249) (e261 c249)))
(define-fun e263 ((c249 (_ BitVec 64))) Bool (not (e262 c249)))
(define-fun e264 ((c249 (_ BitVec 64))) Bool (or (e256 c249) (e263 c249)))
(define-fun e265 () Bool (forall ((c249 (_ BitVec 64))) (e264 c249)))
(define-fun e266 () Bool (and e248 e265))
(define-fun e267 () Bool (not e266))
(define-fun e268 () Bool (or e124 e267))
(define-fun e269 () Bool (not e268))
(assert e269)
(check-sat)
